382,-6
468,298
444,369
536,301
609,458
677,377
829,258
734,379
672,465
663,524
545,139
617,207
734,379
734,433
672,465
609,458
307,596
399,794
293,688
178,485
307,596
468,298
607,178
1125,336
536,301
